NAME : a280
COMMENT : Algorithm MCMF_2opt
COMMENT : Length 2713 
COMMENT : Elapsed time 0.010336 seconds
TYPE : TOUR
DIMENSION : 280
TOUR_SECTION
1
2
280
3
279
278
248
249
250
247
245
244
243
242
241
240
239
238
237
236
235
234
233
232
231
246
251
230
229
228
227
226
225
224
223
222
221
220
219
218
217
216
215
214
213
212
211
210
207
208
253
254
209
252
255
256
257
258
259
260
261
262
263
264
265
140
139
148
147
146
145
144
143
142
141
206
205
204
203
202
201
200
199
198
197
196
195
194
193
192
191
190
189
188
187
186
185
184
183
182
181
180
179
150
149
138
137
136
266
267
268
269
135
270
134
133
132
131
130
129
154
155
153
156
122
123
124
125
30
126
127
128
21
20
19
18
17
16
271
272
273
274
275
276
277
4
5
6
7
8
9
10
11
12
15
13
14
24
23
25
22
26
27
28
29
31
32
33
34
35
36
37
38
39
40
41
42
121
120
119
152
151
178
177
176
157
158
159
160
175
161
162
163
164
165
166
167
168
169
170
171
172
173
174
107
106
105
104
103
102
101
100
99
98
97
96
95
94
93
92
91
90
89
109
108
110
111
114
112
88
87
113
115
117
116
86
85
84
83
82
81
80
79
78
77
76
75
74
73
72
71
70
67
66
65
64
63
62
118
61
60
43
44
45
46
47
48
49
50
51
52
53
54
55
56
57
59
58
68
69
EOF
